(declare-fun c () String)
(declare-fun g () String)
(declare-fun b () String)
(declare-fun d () String)
(declare-fun f () String)
(declare-fun a () String)
(declare-fun h () String)
(assert (= (str.++ "cde" d c) (str.++ b "g")))
(assert (= h "c"))
(assert (= d (str.++ a f "f" c "g" g)))

(check-sat)
